p edge 284 3629
v 1 378
v 2 408
v 3 205
v 4 672
v 5 642
v 6 593
v 7 470
v 8 504
v 9 269
v 10 531
v 11 382
v 12 241
v 13 676
v 14 439
v 15 573
v 16 366
v 17 265
v 18 549
v 19 371
v 20 367
v 21 430
v 22 248
v 23 429
v 24 501
v 25 430
v 26 255
v 27 226
v 28 318
v 29 429
v 30 603
v 31 647
v 32 610
v 33 636
v 34 563
v 35 233
v 36 616
v 37 535
v 38 606
v 39 625
v 40 507
v 41 356
v 42 368
v 43 558
v 44 593
v 45 287
v 46 406
v 47 256
v 48 397
v 49 209
v 50 537
v 51 524
v 52 589
v 53 284
v 54 619
v 55 649
v 56 563
v 57 271
v 58 311
v 59 442
v 60 680
v 61 296
v 62 410
v 63 551
v 64 562
v 65 597
v 66 645
v 67 576
v 68 514
v 69 704
v 70 499
v 71 532
v 72 466
v 73 534
v 74 501
v 75 696
v 76 562
v 77 451
v 78 274
v 79 314
v 80 659
v 81 360
v 82 647
v 83 263
v 84 354
v 85 493
v 86 289
v 87 295
v 88 312
v 89 468
v 90 574
v 91 351
v 92 279
v 93 643
v 94 660
v 95 201
v 96 371
v 97 496
v 98 554
v 99 452
v 100 689
v 101 540
v 102 435
v 103 408
v 104 426
v 105 364
v 106 274
v 107 393
v 108 280
v 109 491
v 110 330
v 111 287
v 112 414
v 113 441
v 114 241
v 115 561
v 116 660
v 117 207
v 118 527
v 119 566
v 120 286
v 121 239
v 122 465
v 123 502
v 124 560
v 125 458
v 126 631
v 127 501
v 128 684
v 129 343
v 130 336
v 131 363
v 132 463
v 133 391
v 134 526
v 135 333
v 136 545
v 137 552
v 138 594
v 139 474
v 140 428
v 141 364
v 142 597
v 143 206
v 144 421
v 145 566
v 146 458
v 147 315
v 148 289
v 149 671
v 150 631
v 151 676
v 152 516
v 153 256
v 154 379
v 155 397
v 156 396
v 157 607
v 158 560
v 159 491
v 160 613
v 161 570
v 162 345
v 163 530
v 164 554
v 165 570
v 166 322
v 167 657
v 168 261
v 169 370
v 170 255
v 171 317
v 172 626
v 173 348
v 174 413
v 175 600
v 176 655
v 177 495
v 178 608
v 179 497
v 180 325
v 181 324
v 182 468
v 183 386
v 184 391
v 185 563
v 186 589
v 187 453
v 188 305
v 189 497
v 190 205
v 191 643
v 192 239
v 193 605
v 194 218
v 195 641
v 196 230
v 197 228
v 198 437
v 199 577
v 200 292
v 201 231
v 202 614
v 203 444
v 204 582
v 205 285
v 206 672
v 207 395
v 208 334
v 209 666
v 210 610
v 211 622
v 212 577
v 213 250
v 214 265
v 215 218
v 216 268
v 217 567
v 218 290
v 219 239
v 220 551
v 221 526
v 222 446
v 223 471
v 224 629
v 225 330
v 226 334
v 227 515
v 228 443
v 229 287
v 230 578
v 231 221
v 232 352
v 233 241
v 234 636
v 235 341
v 236 223
v 237 290
v 238 326
v 239 537
v 240 619
v 241 312
v 242 294
v 243 513
v 244 563
v 245 544
v 246 674
v 247 512
v 248 261
v 249 589
v 250 540
v 251 480
v 252 367
v 253 524
v 254 604
v 255 374
v 256 234
v 257 620
v 258 528
v 259 603
v 260 241
v 261 502
v 262 640
v 263 448
v 264 263
v 265 240
v 266 388
v 267 208
v 268 470
v 269 487
v 270 481
v 271 211
v 272 448
v 273 694
v 274 497
v 275 347
v 276 617
v 277 288
v 278 663
v 279 279
v 280 703
v 281 441
v 282 363
v 283 253
v 284 684
e 1 2
e 1 3
e 1 4
e 1 5
e 1 6
e 1 7
e 1 8
e 1 9
e 1 10
e 1 11
e 1 12
e 1 13
e 1 14
e 1 15
e 1 33
e 1 49
e 1 65
e 1 76
e 1 104
e 1 118
e 1 132
e 1 167
e 1 181
e 1 192
e 1 216
e 1 231
e 1 271
e 2 3
e 2 4
e 2 5
e 2 6
e 2 7
e 2 8
e 2 9
e 2 10
e 2 11
e 2 12
e 2 13
e 2 14
e 2 17
e 2 35
e 2 77
e 2 106
e 2 119
e 2 182
e 2 194
e 2 205
e 2 233
e 2 257
e 2 272
e 3 4
e 3 5
e 3 6
e 3 7
e 3 8
e 3 9
e 3 10
e 3 11
e 3 12
e 3 13
e 3 14
e 3 18
e 3 51
e 3 78
e 3 91
e 3 107
e 3 120
e 3 169
e 3 183
e 3 206
e 3 218
e 3 234
e 3 244
e 3 258
e 4 5
e 4 6
e 4 7
e 4 8
e 4 9
e 4 10
e 4 11
e 4 12
e 4 13
e 4 14
e 4 19
e 4 36
e 4 52
e 4 79
e 4 92
e 4 108
e 4 121
e 4 133
e 4 155
e 4 170
e 4 184
e 4 195
e 4 207
e 4 219
e 5 6
e 5 7
e 5 8
e 5 9
e 5 10
e 5 11
e 5 12
e 5 13
e 5 14
e 5 21
e 5 54
e 5 66
e 5 81
e 5 109
e 5 123
e 5 135
e 5 144
e 5 157
e 5 186
e 5 196
e 5 208
e 5 221
e 5 246
e 5 260
e 5 274
e 6 7
e 6 8
e 6 9
e 6 10
e 6 11
e 6 12
e 6 13
e 6 14
e 6 67
e 6 82
e 6 94
e 6 145
e 6 158
e 6 172
e 6 197
e 6 209
e 6 247
e 6 261
e 6 275
e 7 8
e 7 9
e 7 10
e 7 11
e 7 12
e 7 13
e 7 14
e 7 23
e 7 39
e 7 56
e 7 69
e 7 83
e 7 111
e 7 136
e 7 159
e 7 174
e 7 187
e 7 210
e 7 223
e 7 237
e 7 249
e 7 263
e 8 9
e 8 10
e 8 11
e 8 12
e 8 13
e 8 14
e 8 25
e 8 40
e 8 58
e 8 84
e 8 113
e 8 138
e 8 148
e 8 176
e 8 188
e 8 199
e 8 212
e 8 224
e 8 238
e 8 278
e 9 10
e 9 11
e 9 12
e 9 13
e 9 14
e 9 26
e 9 41
e 9 59
e 9 70
e 9 85
e 9 96
e 9 125
e 9 139
e 9 177
e 9 200
e 9 225
e 9 239
e 9 279
e 10 11
e 10 12
e 10 13
e 10 14
e 10 44
e 10 61
e 10 73
e 10 86
e 10 99
e 10 116
e 10 128
e 10 150
e 10 190
e 10 280
e 11 12
e 11 13
e 11 14
e 11 28
e 11 62
e 11 87
e 11 100
e 11 151
e 11 163
e 11 191
e 11 214
e 11 227
e 11 253
e 11 266
e 11 281
e 12 13
e 12 14
e 12 29
e 12 45
e 12 74
e 12 129
e 12 164
e 12 179
e 12 228
e 12 241
e 12 267
e 13 14
e 13 31
e 13 47
e 13 102
e 13 117
e 13 153
e 13 166
e 13 180
e 13 202
e 13 255
e 13 269
e 13 283
e 14 32
e 14 48
e 14 64
e 14 89
e 14 103
e 14 131
e 14 141
e 14 154
e 14 203
e 14 215
e 14 230
e 14 256
e 14 270
e 14 284
e 15 16
e 15 17
e 15 18
e 15 19
e 15 20
e 15 21
e 15 22
e 15 23
e 15 24
e 15 25
e 15 26
e 15 27
e 15 28
e 15 29
e 15 30
e 15 31
e 15 32
e 15 33
e 15 49
e 15 65
e 15 76
e 15 104
e 15 118
e 15 132
e 15 167
e 15 181
e 15 192
e 15 216
e 15 231
e 15 271
e 16 17
e 16 18
e 16 19
e 16 20
e 16 21
e 16 22
e 16 23
e 16 24
e 16 25
e 16 26
e 16 27
e 16 28
e 16 29
e 16 30
e 16 31
e 16 32
e 16 34
e 16 50
e 16 90
e 16 105
e 16 142
e 16 168
e 16 193
e 16 204
e 16 217
e 16 232
e 16 243
e 17 18
e 17 19
e 17 20
e 17 21
e 17 22
e 17 23
e 17 24
e 17 25
e 17 26
e 17 27
e 17 28
e 17 29
e 17 30
e 17 31
e 17 32
e 17 35
e 17 77
e 17 106
e 17 119
e 17 182
e 17 194
e 17 205
e 17 233
e 17 257
e 17 272
e 18 19
e 18 20
e 18 21
e 18 22
e 18 23
e 18 24
e 18 25
e 18 26
e 18 27
e 18 28
e 18 29
e 18 30
e 18 31
e 18 32
e 18 51
e 18 78
e 18 91
e 18 107
e 18 120
e 18 169
e 18 183
e 18 206
e 18 218
e 18 234
e 18 244
e 18 258
e 19 20
e 19 21
e 19 22
e 19 23
e 19 24
e 19 25
e 19 26
e 19 27
e 19 28
e 19 29
e 19 30
e 19 31
e 19 32
e 19 36
e 19 52
e 19 79
e 19 92
e 19 108
e 19 121
e 19 133
e 19 155
e 19 170
e 19 184
e 19 195
e 19 207
e 19 219
e 20 21
e 20 22
e 20 23
e 20 24
e 20 25
e 20 26
e 20 27
e 20 28
e 20 29
e 20 30
e 20 31
e 20 32
e 20 37
e 20 53
e 20 80
e 20 93
e 20 122
e 20 134
e 20 143
e 20 156
e 20 171
e 20 185
e 20 220
e 20 235
e 20 245
e 20 259
e 20 273
e 21 22
e 21 23
e 21 24
e 21 25
e 21 26
e 21 27
e 21 28
e 21 29
e 21 30
e 21 31
e 21 32
e 21 54
e 21 66
e 21 81
e 21 109
e 21 123
e 21 135
e 21 144
e 21 157
e 21 186
e 21 196
e 21 208
e 21 221
e 21 246
e 21 260
e 21 274
e 22 23
e 22 24
e 22 25
e 22 26
e 22 27
e 22 28
e 22 29
e 22 30
e 22 31
e 22 32
e 22 38
e 22 55
e 22 68
e 22 110
e 22 124
e 22 146
e 22 173
e 22 198
e 22 222
e 22 236
e 22 248
e 22 262
e 22 276
e 23 24
e 23 25
e 23 26
e 23 27
e 23 28
e 23 29
e 23 30
e 23 31
e 23 32
e 23 39
e 23 56
e 23 69
e 23 83
e 23 111
e 23 136
e 23 159
e 23 174
e 23 187
e 23 210
e 23 223
e 23 237
e 23 249
e 23 263
e 24 25
e 24 26
e 24 27
e 24 28
e 24 29
e 24 30
e 24 31
e 24 32
e 24 57
e 24 95
e 24 112
e 24 137
e 24 147
e 24 160
e 24 175
e 24 211
e 24 250
e 24 277
e 25 26
e 25 27
e 25 28
e 25 29
e 25 30
e 25 31
e 25 32
e 25 40
e 25 58
e 25 84
e 25 113
e 25 138
e 25 148
e 25 176
e 25 188
e 25 199
e 25 212
e 25 224
e 25 238
e 25 278
e 26 27
e 26 28
e 26 29
e 26 30
e 26 31
e 26 32
e 26 41
e 26 59
e 26 70
e 26 85
e 26 96
e 26 125
e 26 139
e 26 177
e 26 200
e 26 225
e 26 239
e 26 279
e 27 28
e 27 29
e 27 30
e 27 31
e 27 32
e 27 42
e 27 71
e 27 97
e 27 114
e 27 126
e 27 140
e 27 161
e 27 178
e 27 189
e 27 251
e 27 264
e 28 29
e 28 30
e 28 31
e 28 32
e 28 62
e 28 87
e 28 100
e 28 151
e 28 163
e 28 191
e 28 214
e 28 227
e 28 253
e 28 266
e 28 281
e 29 30
e 29 31
e 29 32
e 29 45
e 29 74
e 29 129
e 29 164
e 29 179
e 29 228
e 29 241
e 29 267
e 30 31
e 30 32
e 30 46
e 30 63
e 30 75
e 30 88
e 30 101
e 30 130
e 30 152
e 30 165
e 30 201
e 30 229
e 30 242
e 30 254
e 30 268
e 30 282
e 31 32
e 31 47
e 31 102
e 31 117
e 31 153
e 31 166
e 31 180
e 31 202
e 31 255
e 31 269
e 31 283
e 32 48
e 32 64
e 32 89
e 32 103
e 32 131
e 32 141
e 32 154
e 32 203
e 32 215
e 32 230
e 32 256
e 32 270
e 32 284
e 33 34
e 33 35
e 33 36
e 33 37
e 33 38
e 33 39
e 33 40
e 33 41
e 33 42
e 33 43
e 33 44
e 33 45
e 33 46
e 33 47
e 33 48
e 33 49
e 33 65
e 33 76
e 33 104
e 33 118
e 33 132
e 33 167
e 33 181
e 33 192
e 33 216
e 33 231
e 33 271
e 34 35
e 34 36
e 34 37
e 34 38
e 34 39
e 34 40
e 34 41
e 34 42
e 34 43
e 34 44
e 34 45
e 34 46
e 34 47
e 34 48
e 34 50
e 34 90
e 34 105
e 34 142
e 34 168
e 34 193
e 34 204
e 34 217
e 34 232
e 34 243
e 35 36
e 35 37
e 35 38
e 35 39
e 35 40
e 35 41
e 35 42
e 35 43
e 35 44
e 35 45
e 35 46
e 35 47
e 35 48
e 35 77
e 35 106
e 35 119
e 35 182
e 35 194
e 35 205
e 35 233
e 35 257
e 35 272
e 36 37
e 36 38
e 36 39
e 36 40
e 36 41
e 36 42
e 36 43
e 36 44
e 36 45
e 36 46
e 36 47
e 36 48
e 36 52
e 36 79
e 36 92
e 36 108
e 36 121
e 36 133
e 36 155
e 36 170
e 36 184
e 36 195
e 36 207
e 36 219
e 37 38
e 37 39
e 37 40
e 37 41
e 37 42
e 37 43
e 37 44
e 37 45
e 37 46
e 37 47
e 37 48
e 37 53
e 37 80
e 37 93
e 37 122
e 37 134
e 37 143
e 37 156
e 37 171
e 37 185
e 37 220
e 37 235
e 37 245
e 37 259
e 37 273
e 38 39
e 38 40
e 38 41
e 38 42
e 38 43
e 38 44
e 38 45
e 38 46
e 38 47
e 38 48
e 38 55
e 38 68
e 38 110
e 38 124
e 38 146
e 38 173
e 38 198
e 38 222
e 38 236
e 38 248
e 38 262
e 38 276
e 39 40
e 39 41
e 39 42
e 39 43
e 39 44
e 39 45
e 39 46
e 39 47
e 39 48
e 39 56
e 39 69
e 39 83
e 39 111
e 39 136
e 39 159
e 39 174
e 39 187
e 39 210
e 39 223
e 39 237
e 39 249
e 39 263
e 40 41
e 40 42
e 40 43
e 40 44
e 40 45
e 40 46
e 40 47
e 40 48
e 40 58
e 40 84
e 40 113
e 40 138
e 40 148
e 40 176
e 40 188
e 40 199
e 40 212
e 40 224
e 40 238
e 40 278
e 41 42
e 41 43
e 41 44
e 41 45
e 41 46
e 41 47
e 41 48
e 41 59
e 41 70
e 41 85
e 41 96
e 41 125
e 41 139
e 41 177
e 41 200
e 41 225
e 41 239
e 41 279
e 42 43
e 42 44
e 42 45
e 42 46
e 42 47
e 42 48
e 42 71
e 42 97
e 42 114
e 42 126
e 42 140
e 42 161
e 42 178
e 42 189
e 42 251
e 42 264
e 43 44
e 43 45
e 43 46
e 43 47
e 43 48
e 43 60
e 43 72
e 43 98
e 43 115
e 43 127
e 43 149
e 43 162
e 43 213
e 43 226
e 43 240
e 43 252
e 43 265
e 44 45
e 44 46
e 44 47
e 44 48
e 44 61
e 44 73
e 44 86
e 44 99
e 44 116
e 44 128
e 44 150
e 44 190
e 44 280
e 45 46
e 45 47
e 45 48
e 45 74
e 45 129
e 45 164
e 45 179
e 45 228
e 45 241
e 45 267
e 46 47
e 46 48
e 46 63
e 46 75
e 46 88
e 46 101
e 46 130
e 46 152
e 46 165
e 46 201
e 46 229
e 46 242
e 46 254
e 46 268
e 46 282
e 47 48
e 47 102
e 47 117
e 47 153
e 47 166
e 47 180
e 47 202
e 47 255
e 47 269
e 47 283
e 48 64
e 48 89
e 48 103
e 48 131
e 48 141
e 48 154
e 48 203
e 48 215
e 48 230
e 48 256
e 48 270
e 48 284
e 49 50
e 49 51
e 49 52
e 49 53
e 49 54
e 49 55
e 49 56
e 49 57
e 49 58
e 49 59
e 49 60
e 49 61
e 49 62
e 49 63
e 49 64
e 49 65
e 49 76
e 49 104
e 49 118
e 49 132
e 49 167
e 49 181
e 49 192
e 49 216
e 49 231
e 49 271
e 50 51
e 50 52
e 50 53
e 50 54
e 50 55
e 50 56
e 50 57
e 50 58
e 50 59
e 50 60
e 50 61
e 50 62
e 50 63
e 50 64
e 50 90
e 50 105
e 50 142
e 50 168
e 50 193
e 50 204
e 50 217
e 50 232
e 50 243
e 51 52
e 51 53
e 51 54
e 51 55
e 51 56
e 51 57
e 51 58
e 51 59
e 51 60
e 51 61
e 51 62
e 51 63
e 51 64
e 51 78
e 51 91
e 51 107
e 51 120
e 51 169
e 51 183
e 51 206
e 51 218
e 51 234
e 51 244
e 51 258
e 52 53
e 52 54
e 52 55
e 52 56
e 52 57
e 52 58
e 52 59
e 52 60
e 52 61
e 52 62
e 52 63
e 52 64
e 52 79
e 52 92
e 52 108
e 52 121
e 52 133
e 52 155
e 52 170
e 52 184
e 52 195
e 52 207
e 52 219
e 53 54
e 53 55
e 53 56
e 53 57
e 53 58
e 53 59
e 53 60
e 53 61
e 53 62
e 53 63
e 53 64
e 53 80
e 53 93
e 53 122
e 53 134
e 53 143
e 53 156
e 53 171
e 53 185
e 53 220
e 53 235
e 53 245
e 53 259
e 53 273
e 54 55
e 54 56
e 54 57
e 54 58
e 54 59
e 54 60
e 54 61
e 54 62
e 54 63
e 54 64
e 54 66
e 54 81
e 54 109
e 54 123
e 54 135
e 54 144
e 54 157
e 54 186
e 54 196
e 54 208
e 54 221
e 54 246
e 54 260
e 54 274
e 55 56
e 55 57
e 55 58
e 55 59
e 55 60
e 55 61
e 55 62
e 55 63
e 55 64
e 55 68
e 55 110
e 55 124
e 55 146
e 55 173
e 55 198
e 55 222
e 55 236
e 55 248
e 55 262
e 55 276
e 56 57
e 56 58
e 56 59
e 56 60
e 56 61
e 56 62
e 56 63
e 56 64
e 56 69
e 56 83
e 56 111
e 56 136
e 56 159
e 56 174
e 56 187
e 56 210
e 56 223
e 56 237
e 56 249
e 56 263
e 57 58
e 57 59
e 57 60
e 57 61
e 57 62
e 57 63
e 57 64
e 57 95
e 57 112
e 57 137
e 57 147
e 57 160
e 57 175
e 57 211
e 57 250
e 57 277
e 58 59
e 58 60
e 58 61
e 58 62
e 58 63
e 58 64
e 58 84
e 58 113
e 58 138
e 58 148
e 58 176
e 58 188
e 58 199
e 58 212
e 58 224
e 58 238
e 58 278
e 59 60
e 59 61
e 59 62
e 59 63
e 59 64
e 59 70
e 59 85
e 59 96
e 59 125
e 59 139
e 59 177
e 59 200
e 59 225
e 59 239
e 59 279
e 60 61
e 60 62
e 60 63
e 60 64
e 60 72
e 60 98
e 60 115
e 60 127
e 60 149
e 60 162
e 60 213
e 60 226
e 60 240
e 60 252
e 60 265
e 61 62
e 61 63
e 61 64
e 61 73
e 61 86
e 61 99
e 61 116
e 61 128
e 61 150
e 61 190
e 61 280
e 62 63
e 62 64
e 62 87
e 62 100
e 62 151
e 62 163
e 62 191
e 62 214
e 62 227
e 62 253
e 62 266
e 62 281
e 63 64
e 63 75
e 63 88
e 63 101
e 63 130
e 63 152
e 63 165
e 63 201
e 63 229
e 63 242
e 63 254
e 63 268
e 63 282
e 64 89
e 64 103
e 64 131
e 64 141
e 64 154
e 64 203
e 64 215
e 64 230
e 64 256
e 64 270
e 64 284
e 65 66
e 65 67
e 65 68
e 65 69
e 65 70
e 65 71
e 65 72
e 65 73
e 65 74
e 65 75
e 65 76
e 65 104
e 65 118
e 65 132
e 65 167
e 65 181
e 65 192
e 65 216
e 65 231
e 65 271
e 66 67
e 66 68
e 66 69
e 66 70
e 66 71
e 66 72
e 66 73
e 66 74
e 66 75
e 66 81
e 66 109
e 66 123
e 66 135
e 66 144
e 66 157
e 66 186
e 66 196
e 66 208
e 66 221
e 66 246
e 66 260
e 66 274
e 67 68
e 67 69
e 67 70
e 67 71
e 67 72
e 67 73
e 67 74
e 67 75
e 67 82
e 67 94
e 67 145
e 67 158
e 67 172
e 67 197
e 67 209
e 67 247
e 67 261
e 67 275
e 68 69
e 68 70
e 68 71
e 68 72
e 68 73
e 68 74
e 68 75
e 68 110
e 68 124
e 68 146
e 68 173
e 68 198
e 68 222
e 68 236
e 68 248
e 68 262
e 68 276
e 69 70
e 69 71
e 69 72
e 69 73
e 69 74
e 69 75
e 69 83
e 69 111
e 69 136
e 69 159
e 69 174
e 69 187
e 69 210
e 69 223
e 69 237
e 69 249
e 69 263
e 70 71
e 70 72
e 70 73
e 70 74
e 70 75
e 70 85
e 70 96
e 70 125
e 70 139
e 70 177
e 70 200
e 70 225
e 70 239
e 70 279
e 71 72
e 71 73
e 71 74
e 71 75
e 71 97
e 71 114
e 71 126
e 71 140
e 71 161
e 71 178
e 71 189
e 71 251
e 71 264
e 72 73
e 72 74
e 72 75
e 72 98
e 72 115
e 72 127
e 72 149
e 72 162
e 72 213
e 72 226
e 72 240
e 72 252
e 72 265
e 73 74
e 73 75
e 73 86
e 73 99
e 73 116
e 73 128
e 73 150
e 73 190
e 73 280
e 74 75
e 74 129
e 74 164
e 74 179
e 74 228
e 74 241
e 74 267
e 75 88
e 75 101
e 75 130
e 75 152
e 75 165
e 75 201
e 75 229
e 75 242
e 75 254
e 75 268
e 75 282
e 76 77
e 76 78
e 76 79
e 76 80
e 76 81
e 76 82
e 76 83
e 76 84
e 76 85
e 76 86
e 76 87
e 76 88
e 76 89
e 76 104
e 76 118
e 76 132
e 76 167
e 76 181
e 76 192
e 76 216
e 76 231
e 76 271
e 77 78
e 77 79
e 77 80
e 77 81
e 77 82
e 77 83
e 77 84
e 77 85
e 77 86
e 77 87
e 77 88
e 77 89
e 77 106
e 77 119
e 77 182
e 77 194
e 77 205
e 77 233
e 77 257
e 77 272
e 78 79
e 78 80
e 78 81
e 78 82
e 78 83
e 78 84
e 78 85
e 78 86
e 78 87
e 78 88
e 78 89
e 78 91
e 78 107
e 78 120
e 78 169
e 78 183
e 78 206
e 78 218
e 78 234
e 78 244
e 78 258
e 79 80
e 79 81
e 79 82
e 79 83
e 79 84
e 79 85
e 79 86
e 79 87
e 79 88
e 79 89
e 79 92
e 79 108
e 79 121
e 79 133
e 79 155
e 79 170
e 79 184
e 79 195
e 79 207
e 79 219
e 80 81
e 80 82
e 80 83
e 80 84
e 80 85
e 80 86
e 80 87
e 80 88
e 80 89
e 80 93
e 80 122
e 80 134
e 80 143
e 80 156
e 80 171
e 80 185
e 80 220
e 80 235
e 80 245
e 80 259
e 80 273
e 81 82
e 81 83
e 81 84
e 81 85
e 81 86
e 81 87
e 81 88
e 81 89
e 81 109
e 81 123
e 81 135
e 81 144
e 81 157
e 81 186
e 81 196
e 81 208
e 81 221
e 81 246
e 81 260
e 81 274
e 82 83
e 82 84
e 82 85
e 82 86
e 82 87
e 82 88
e 82 89
e 82 94
e 82 145
e 82 158
e 82 172
e 82 197
e 82 209
e 82 247
e 82 261
e 82 275
e 83 84
e 83 85
e 83 86
e 83 87
e 83 88
e 83 89
e 83 111
e 83 136
e 83 159
e 83 174
e 83 187
e 83 210
e 83 223
e 83 237
e 83 249
e 83 263
e 84 85
e 84 86
e 84 87
e 84 88
e 84 89
e 84 113
e 84 138
e 84 148
e 84 176
e 84 188
e 84 199
e 84 212
e 84 224
e 84 238
e 84 278
e 85 86
e 85 87
e 85 88
e 85 89
e 85 96
e 85 125
e 85 139
e 85 177
e 85 200
e 85 225
e 85 239
e 85 279
e 86 87
e 86 88
e 86 89
e 86 99
e 86 116
e 86 128
e 86 150
e 86 190
e 86 280
e 87 88
e 87 89
e 87 100
e 87 151
e 87 163
e 87 191
e 87 214
e 87 227
e 87 253
e 87 266
e 87 281
e 88 89
e 88 101
e 88 130
e 88 152
e 88 165
e 88 201
e 88 229
e 88 242
e 88 254
e 88 268
e 88 282
e 89 103
e 89 131
e 89 141
e 89 154
e 89 203
e 89 215
e 89 230
e 89 256
e 89 270
e 89 284
e 90 91
e 90 92
e 90 93
e 90 94
e 90 95
e 90 96
e 90 97
e 90 98
e 90 99
e 90 100
e 90 101
e 90 102
e 90 103
e 90 105
e 90 142
e 90 168
e 90 193
e 90 204
e 90 217
e 90 232
e 90 243
e 91 92
e 91 93
e 91 94
e 91 95
e 91 96
e 91 97
e 91 98
e 91 99
e 91 100
e 91 101
e 91 102
e 91 103
e 91 107
e 91 120
e 91 169
e 91 183
e 91 206
e 91 218
e 91 234
e 91 244
e 91 258
e 92 93
e 92 94
e 92 95
e 92 96
e 92 97
e 92 98
e 92 99
e 92 100
e 92 101
e 92 102
e 92 103
e 92 108
e 92 121
e 92 133
e 92 155
e 92 170
e 92 184
e 92 195
e 92 207
e 92 219
e 93 94
e 93 95
e 93 96
e 93 97
e 93 98
e 93 99
e 93 100
e 93 101
e 93 102
e 93 103
e 93 122
e 93 134
e 93 143
e 93 156
e 93 171
e 93 185
e 93 220
e 93 235
e 93 245
e 93 259
e 93 273
e 94 95
e 94 96
e 94 97
e 94 98
e 94 99
e 94 100
e 94 101
e 94 102
e 94 103
e 94 145
e 94 158
e 94 172
e 94 197
e 94 209
e 94 247
e 94 261
e 94 275
e 95 96
e 95 97
e 95 98
e 95 99
e 95 100
e 95 101
e 95 102
e 95 103
e 95 112
e 95 137
e 95 147
e 95 160
e 95 175
e 95 211
e 95 250
e 95 277
e 96 97
e 96 98
e 96 99
e 96 100
e 96 101
e 96 102
e 96 103
e 96 125
e 96 139
e 96 177
e 96 200
e 96 225
e 96 239
e 96 279
e 97 98
e 97 99
e 97 100
e 97 101
e 97 102
e 97 103
e 97 114
e 97 126
e 97 140
e 97 161
e 97 178
e 97 189
e 97 251
e 97 264
e 98 99
e 98 100
e 98 101
e 98 102
e 98 103
e 98 115
e 98 127
e 98 149
e 98 162
e 98 213
e 98 226
e 98 240
e 98 252
e 98 265
e 99 100
e 99 101
e 99 102
e 99 103
e 99 116
e 99 128
e 99 150
e 99 190
e 99 280
e 100 101
e 100 102
e 100 103
e 100 151
e 100 163
e 100 191
e 100 214
e 100 227
e 100 253
e 100 266
e 100 281
e 101 102
e 101 103
e 101 130
e 101 152
e 101 165
e 101 201
e 101 229
e 101 242
e 101 254
e 101 268
e 101 282
e 102 103
e 102 117
e 102 153
e 102 166
e 102 180
e 102 202
e 102 255
e 102 269
e 102 283
e 103 131
e 103 141
e 103 154
e 103 203
e 103 215
e 103 230
e 103 256
e 103 270
e 103 284
e 104 105
e 104 106
e 104 107
e 104 108
e 104 109
e 104 110
e 104 111
e 104 112
e 104 113
e 104 114
e 104 115
e 104 116
e 104 117
e 104 118
e 104 132
e 104 167
e 104 181
e 104 192
e 104 216
e 104 231
e 104 271
e 105 106
e 105 107
e 105 108
e 105 109
e 105 110
e 105 111
e 105 112
e 105 113
e 105 114
e 105 115
e 105 116
e 105 117
e 105 142
e 105 168
e 105 193
e 105 204
e 105 217
e 105 232
e 105 243
e 106 107
e 106 108
e 106 109
e 106 110
e 106 111
e 106 112
e 106 113
e 106 114
e 106 115
e 106 116
e 106 117
e 106 119
e 106 182
e 106 194
e 106 205
e 106 233
e 106 257
e 106 272
e 107 108
e 107 109
e 107 110
e 107 111
e 107 112
e 107 113
e 107 114
e 107 115
e 107 116
e 107 117
e 107 120
e 107 169
e 107 183
e 107 206
e 107 218
e 107 234
e 107 244
e 107 258
e 108 109
e 108 110
e 108 111
e 108 112
e 108 113
e 108 114
e 108 115
e 108 116
e 108 117
e 108 121
e 108 133
e 108 155
e 108 170
e 108 184
e 108 195
e 108 207
e 108 219
e 109 110
e 109 111
e 109 112
e 109 113
e 109 114
e 109 115
e 109 116
e 109 117
e 109 123
e 109 135
e 109 144
e 109 157
e 109 186
e 109 196
e 109 208
e 109 221
e 109 246
e 109 260
e 109 274
e 110 111
e 110 112
e 110 113
e 110 114
e 110 115
e 110 116
e 110 117
e 110 124
e 110 146
e 110 173
e 110 198
e 110 222
e 110 236
e 110 248
e 110 262
e 110 276
e 111 112
e 111 113
e 111 114
e 111 115
e 111 116
e 111 117
e 111 136
e 111 159
e 111 174
e 111 187
e 111 210
e 111 223
e 111 237
e 111 249
e 111 263
e 112 113
e 112 114
e 112 115
e 112 116
e 112 117
e 112 137
e 112 147
e 112 160
e 112 175
e 112 211
e 112 250
e 112 277
e 113 114
e 113 115
e 113 116
e 113 117
e 113 138
e 113 148
e 113 176
e 113 188
e 113 199
e 113 212
e 113 224
e 113 238
e 113 278
e 114 115
e 114 116
e 114 117
e 114 126
e 114 140
e 114 161
e 114 178
e 114 189
e 114 251
e 114 264
e 115 116
e 115 117
e 115 127
e 115 149
e 115 162
e 115 213
e 115 226
e 115 240
e 115 252
e 115 265
e 116 117
e 116 128
e 116 150
e 116 190
e 116 280
e 117 153
e 117 166
e 117 180
e 117 202
e 117 255
e 117 269
e 117 283
e 118 119
e 118 120
e 118 121
e 118 122
e 118 123
e 118 124
e 118 125
e 118 126
e 118 127
e 118 128
e 118 129
e 118 130
e 118 131
e 118 132
e 118 167
e 118 181
e 118 192
e 118 216
e 118 231
e 118 271
e 119 120
e 119 121
e 119 122
e 119 123
e 119 124
e 119 125
e 119 126
e 119 127
e 119 128
e 119 129
e 119 130
e 119 131
e 119 182
e 119 194
e 119 205
e 119 233
e 119 257
e 119 272
e 120 121
e 120 122
e 120 123
e 120 124
e 120 125
e 120 126
e 120 127
e 120 128
e 120 129
e 120 130
e 120 131
e 120 169
e 120 183
e 120 206
e 120 218
e 120 234
e 120 244
e 120 258
e 121 122
e 121 123
e 121 124
e 121 125
e 121 126
e 121 127
e 121 128
e 121 129
e 121 130
e 121 131
e 121 133
e 121 155
e 121 170
e 121 184
e 121 195
e 121 207
e 121 219
e 122 123
e 122 124
e 122 125
e 122 126
e 122 127
e 122 128
e 122 129
e 122 130
e 122 131
e 122 134
e 122 143
e 122 156
e 122 171
e 122 185
e 122 220
e 122 235
e 122 245
e 122 259
e 122 273
e 123 124
e 123 125
e 123 126
e 123 127
e 123 128
e 123 129
e 123 130
e 123 131
e 123 135
e 123 144
e 123 157
e 123 186
e 123 196
e 123 208
e 123 221
e 123 246
e 123 260
e 123 274
e 124 125
e 124 126
e 124 127
e 124 128
e 124 129
e 124 130
e 124 131
e 124 146
e 124 173
e 124 198
e 124 222
e 124 236
e 124 248
e 124 262
e 124 276
e 125 126
e 125 127
e 125 128
e 125 129
e 125 130
e 125 131
e 125 139
e 125 177
e 125 200
e 125 225
e 125 239
e 125 279
e 126 127
e 126 128
e 126 129
e 126 130
e 126 131
e 126 140
e 126 161
e 126 178
e 126 189
e 126 251
e 126 264
e 127 128
e 127 129
e 127 130
e 127 131
e 127 149
e 127 162
e 127 213
e 127 226
e 127 240
e 127 252
e 127 265
e 128 129
e 128 130
e 128 131
e 128 150
e 128 190
e 128 280
e 129 130
e 129 131
e 129 164
e 129 179
e 129 228
e 129 241
e 129 267
e 130 131
e 130 152
e 130 165
e 130 201
e 130 229
e 130 242
e 130 254
e 130 268
e 130 282
e 131 141
e 131 154
e 131 203
e 131 215
e 131 230
e 131 256
e 131 270
e 131 284
e 132 133
e 132 134
e 132 135
e 132 136
e 132 137
e 132 138
e 132 139
e 132 140
e 132 141
e 132 167
e 132 181
e 132 192
e 132 216
e 132 231
e 132 271
e 133 134
e 133 135
e 133 136
e 133 137
e 133 138
e 133 139
e 133 140
e 133 141
e 133 155
e 133 170
e 133 184
e 133 195
e 133 207
e 133 219
e 134 135
e 134 136
e 134 137
e 134 138
e 134 139
e 134 140
e 134 141
e 134 143
e 134 156
e 134 171
e 134 185
e 134 220
e 134 235
e 134 245
e 134 259
e 134 273
e 135 136
e 135 137
e 135 138
e 135 139
e 135 140
e 135 141
e 135 144
e 135 157
e 135 186
e 135 196
e 135 208
e 135 221
e 135 246
e 135 260
e 135 274
e 136 137
e 136 138
e 136 139
e 136 140
e 136 141
e 136 159
e 136 174
e 136 187
e 136 210
e 136 223
e 136 237
e 136 249
e 136 263
e 137 138
e 137 139
e 137 140
e 137 141
e 137 147
e 137 160
e 137 175
e 137 211
e 137 250
e 137 277
e 138 139
e 138 140
e 138 141
e 138 148
e 138 176
e 138 188
e 138 199
e 138 212
e 138 224
e 138 238
e 138 278
e 139 140
e 139 141
e 139 177
e 139 200
e 139 225
e 139 239
e 139 279
e 140 141
e 140 161
e 140 178
e 140 189
e 140 251
e 140 264
e 141 154
e 141 203
e 141 215
e 141 230
e 141 256
e 141 270
e 141 284
e 142 143
e 142 144
e 142 145
e 142 146
e 142 147
e 142 148
e 142 149
e 142 150
e 142 151
e 142 152
e 142 153
e 142 154
e 142 168
e 142 193
e 142 204
e 142 217
e 142 232
e 142 243
e 143 144
e 143 145
e 143 146
e 143 147
e 143 148
e 143 149
e 143 150
e 143 151
e 143 152
e 143 153
e 143 154
e 143 156
e 143 171
e 143 185
e 143 220
e 143 235
e 143 245
e 143 259
e 143 273
e 144 145
e 144 146
e 144 147
e 144 148
e 144 149
e 144 150
e 144 151
e 144 152
e 144 153
e 144 154
e 144 157
e 144 186
e 144 196
e 144 208
e 144 221
e 144 246
e 144 260
e 144 274
e 145 146
e 145 147
e 145 148
e 145 149
e 145 150
e 145 151
e 145 152
e 145 153
e 145 154
e 145 158
e 145 172
e 145 197
e 145 209
e 145 247
e 145 261
e 145 275
e 146 147
e 146 148
e 146 149
e 146 150
e 146 151
e 146 152
e 146 153
e 146 154
e 146 173
e 146 198
e 146 222
e 146 236
e 146 248
e 146 262
e 146 276
e 147 148
e 147 149
e 147 150
e 147 151
e 147 152
e 147 153
e 147 154
e 147 160
e 147 175
e 147 211
e 147 250
e 147 277
e 148 149
e 148 150
e 148 151
e 148 152
e 148 153
e 148 154
e 148 176
e 148 188
e 148 199
e 148 212
e 148 224
e 148 238
e 148 278
e 149 150
e 149 151
e 149 152
e 149 153
e 149 154
e 149 162
e 149 213
e 149 226
e 149 240
e 149 252
e 149 265
e 150 151
e 150 152
e 150 153
e 150 154
e 150 190
e 150 280
e 151 152
e 151 153
e 151 154
e 151 163
e 151 191
e 151 214
e 151 227
e 151 253
e 151 266
e 151 281
e 152 153
e 152 154
e 152 165
e 152 201
e 152 229
e 152 242
e 152 254
e 152 268
e 152 282
e 153 154
e 153 166
e 153 180
e 153 202
e 153 255
e 153 269
e 153 283
e 154 203
e 154 215
e 154 230
e 154 256
e 154 270
e 154 284
e 155 156
e 155 157
e 155 158
e 155 159
e 155 160
e 155 161
e 155 162
e 155 163
e 155 164
e 155 165
e 155 166
e 155 170
e 155 184
e 155 195
e 155 207
e 155 219
e 156 157
e 156 158
e 156 159
e 156 160
e 156 161
e 156 162
e 156 163
e 156 164
e 156 165
e 156 166
e 156 171
e 156 185
e 156 220
e 156 235
e 156 245
e 156 259
e 156 273
e 157 158
e 157 159
e 157 160
e 157 161
e 157 162
e 157 163
e 157 164
e 157 165
e 157 166
e 157 186
e 157 196
e 157 208
e 157 221
e 157 246
e 157 260
e 157 274
e 158 159
e 158 160
e 158 161
e 158 162
e 158 163
e 158 164
e 158 165
e 158 166
e 158 172
e 158 197
e 158 209
e 158 247
e 158 261
e 158 275
e 159 160
e 159 161
e 159 162
e 159 163
e 159 164
e 159 165
e 159 166
e 159 174
e 159 187
e 159 210
e 159 223
e 159 237
e 159 249
e 159 263
e 160 161
e 160 162
e 160 163
e 160 164
e 160 165
e 160 166
e 160 175
e 160 211
e 160 250
e 160 277
e 161 162
e 161 163
e 161 164
e 161 165
e 161 166
e 161 178
e 161 189
e 161 251
e 161 264
e 162 163
e 162 164
e 162 165
e 162 166
e 162 213
e 162 226
e 162 240
e 162 252
e 162 265
e 163 164
e 163 165
e 163 166
e 163 191
e 163 214
e 163 227
e 163 253
e 163 266
e 163 281
e 164 165
e 164 166
e 164 179
e 164 228
e 164 241
e 164 267
e 165 166
e 165 201
e 165 229
e 165 242
e 165 254
e 165 268
e 165 282
e 166 180
e 166 202
e 166 255
e 166 269
e 166 283
e 167 168
e 167 169
e 167 170
e 167 171
e 167 172
e 167 173
e 167 174
e 167 175
e 167 176
e 167 177
e 167 178
e 167 179
e 167 180
e 167 181
e 167 192
e 167 216
e 167 231
e 167 271
e 168 169
e 168 170
e 168 171
e 168 172
e 168 173
e 168 174
e 168 175
e 168 176
e 168 177
e 168 178
e 168 179
e 168 180
e 168 193
e 168 204
e 168 217
e 168 232
e 168 243
e 169 170
e 169 171
e 169 172
e 169 173
e 169 174
e 169 175
e 169 176
e 169 177
e 169 178
e 169 179
e 169 180
e 169 183
e 169 206
e 169 218
e 169 234
e 169 244
e 169 258
e 170 171
e 170 172
e 170 173
e 170 174
e 170 175
e 170 176
e 170 177
e 170 178
e 170 179
e 170 180
e 170 184
e 170 195
e 170 207
e 170 219
e 171 172
e 171 173
e 171 174
e 171 175
e 171 176
e 171 177
e 171 178
e 171 179
e 171 180
e 171 185
e 171 220
e 171 235
e 171 245
e 171 259
e 171 273
e 172 173
e 172 174
e 172 175
e 172 176
e 172 177
e 172 178
e 172 179
e 172 180
e 172 197
e 172 209
e 172 247
e 172 261
e 172 275
e 173 174
e 173 175
e 173 176
e 173 177
e 173 178
e 173 179
e 173 180
e 173 198
e 173 222
e 173 236
e 173 248
e 173 262
e 173 276
e 174 175
e 174 176
e 174 177
e 174 178
e 174 179
e 174 180
e 174 187
e 174 210
e 174 223
e 174 237
e 174 249
e 174 263
e 175 176
e 175 177
e 175 178
e 175 179
e 175 180
e 175 211
e 175 250
e 175 277
e 176 177
e 176 178
e 176 179
e 176 180
e 176 188
e 176 199
e 176 212
e 176 224
e 176 238
e 176 278
e 177 178
e 177 179
e 177 180
e 177 200
e 177 225
e 177 239
e 177 279
e 178 179
e 178 180
e 178 189
e 178 251
e 178 264
e 179 180
e 179 228
e 179 241
e 179 267
e 180 202
e 180 255
e 180 269
e 180 283
e 181 182
e 181 183
e 181 184
e 181 185
e 181 186
e 181 187
e 181 188
e 181 189
e 181 190
e 181 191
e 181 192
e 181 216
e 181 231
e 181 271
e 182 183
e 182 184
e 182 185
e 182 186
e 182 187
e 182 188
e 182 189
e 182 190
e 182 191
e 182 194
e 182 205
e 182 233
e 182 257
e 182 272
e 183 184
e 183 185
e 183 186
e 183 187
e 183 188
e 183 189
e 183 190
e 183 191
e 183 206
e 183 218
e 183 234
e 183 244
e 183 258
e 184 185
e 184 186
e 184 187
e 184 188
e 184 189
e 184 190
e 184 191
e 184 195
e 184 207
e 184 219
e 185 186
e 185 187
e 185 188
e 185 189
e 185 190
e 185 191
e 185 220
e 185 235
e 185 245
e 185 259
e 185 273
e 186 187
e 186 188
e 186 189
e 186 190
e 186 191
e 186 196
e 186 208
e 186 221
e 186 246
e 186 260
e 186 274
e 187 188
e 187 189
e 187 190
e 187 191
e 187 210
e 187 223
e 187 237
e 187 249
e 187 263
e 188 189
e 188 190
e 188 191
e 188 199
e 188 212
e 188 224
e 188 238
e 188 278
e 189 190
e 189 191
e 189 251
e 189 264
e 190 191
e 190 280
e 191 214
e 191 227
e 191 253
e 191 266
e 191 281
e 192 193
e 192 194
e 192 195
e 192 196
e 192 197
e 192 198
e 192 199
e 192 200
e 192 201
e 192 202
e 192 203
e 192 216
e 192 231
e 192 271
e 193 194
e 193 195
e 193 196
e 193 197
e 193 198
e 193 199
e 193 200
e 193 201
e 193 202
e 193 203
e 193 204
e 193 217
e 193 232
e 193 243
e 194 195
e 194 196
e 194 197
e 194 198
e 194 199
e 194 200
e 194 201
e 194 202
e 194 203
e 194 205
e 194 233
e 194 257
e 194 272
e 195 196
e 195 197
e 195 198
e 195 199
e 195 200
e 195 201
e 195 202
e 195 203
e 195 207
e 195 219
e 196 197
e 196 198
e 196 199
e 196 200
e 196 201
e 196 202
e 196 203
e 196 208
e 196 221
e 196 246
e 196 260
e 196 274
e 197 198
e 197 199
e 197 200
e 197 201
e 197 202
e 197 203
e 197 209
e 197 247
e 197 261
e 197 275
e 198 199
e 198 200
e 198 201
e 198 202
e 198 203
e 198 222
e 198 236
e 198 248
e 198 262
e 198 276
e 199 200
e 199 201
e 199 202
e 199 203
e 199 212
e 199 224
e 199 238
e 199 278
e 200 201
e 200 202
e 200 203
e 200 225
e 200 239
e 200 279
e 201 202
e 201 203
e 201 229
e 201 242
e 201 254
e 201 268
e 201 282
e 202 203
e 202 255
e 202 269
e 202 283
e 203 215
e 203 230
e 203 256
e 203 270
e 203 284
e 204 205
e 204 206
e 204 207
e 204 208
e 204 209
e 204 210
e 204 211
e 204 212
e 204 213
e 204 214
e 204 215
e 204 217
e 204 232
e 204 243
e 205 206
e 205 207
e 205 208
e 205 209
e 205 210
e 205 211
e 205 212
e 205 213
e 205 214
e 205 215
e 205 233
e 205 257
e 205 272
e 206 207
e 206 208
e 206 209
e 206 210
e 206 211
e 206 212
e 206 213
e 206 214
e 206 215
e 206 218
e 206 234
e 206 244
e 206 258
e 207 208
e 207 209
e 207 210
e 207 211
e 207 212
e 207 213
e 207 214
e 207 215
e 207 219
e 208 209
e 208 210
e 208 211
e 208 212
e 208 213
e 208 214
e 208 215
e 208 221
e 208 246
e 208 260
e 208 274
e 209 210
e 209 211
e 209 212
e 209 213
e 209 214
e 209 215
e 209 247
e 209 261
e 209 275
e 210 211
e 210 212
e 210 213
e 210 214
e 210 215
e 210 223
e 210 237
e 210 249
e 210 263
e 211 212
e 211 213
e 211 214
e 211 215
e 211 250
e 211 277
e 212 213
e 212 214
e 212 215
e 212 224
e 212 238
e 212 278
e 213 214
e 213 215
e 213 226
e 213 240
e 213 252
e 213 265
e 214 215
e 214 227
e 214 253
e 214 266
e 214 281
e 215 230
e 215 256
e 215 270
e 215 284
e 216 217
e 216 218
e 216 219
e 216 220
e 216 221
e 216 222
e 216 223
e 216 224
e 216 225
e 216 226
e 216 227
e 216 228
e 216 229
e 216 230
e 216 231
e 216 271
e 217 218
e 217 219
e 217 220
e 217 221
e 217 222
e 217 223
e 217 224
e 217 225
e 217 226
e 217 227
e 217 228
e 217 229
e 217 230
e 217 232
e 217 243
e 218 219
e 218 220
e 218 221
e 218 222
e 218 223
e 218 224
e 218 225
e 218 226
e 218 227
e 218 228
e 218 229
e 218 230
e 218 234
e 218 244
e 218 258
e 219 220
e 219 221
e 219 222
e 219 223
e 219 224
e 219 225
e 219 226
e 219 227
e 219 228
e 219 229
e 219 230
e 220 221
e 220 222
e 220 223
e 220 224
e 220 225
e 220 226
e 220 227
e 220 228
e 220 229
e 220 230
e 220 235
e 220 245
e 220 259
e 220 273
e 221 222
e 221 223
e 221 224
e 221 225
e 221 226
e 221 227
e 221 228
e 221 229
e 221 230
e 221 246
e 221 260
e 221 274
e 222 223
e 222 224
e 222 225
e 222 226
e 222 227
e 222 228
e 222 229
e 222 230
e 222 236
e 222 248
e 222 262
e 222 276
e 223 224
e 223 225
e 223 226
e 223 227
e 223 228
e 223 229
e 223 230
e 223 237
e 223 249
e 223 263
e 224 225
e 224 226
e 224 227
e 224 228
e 224 229
e 224 230
e 224 238
e 224 278
e 225 226
e 225 227
e 225 228
e 225 229
e 225 230
e 225 239
e 225 279
e 226 227
e 226 228
e 226 229
e 226 230
e 226 240
e 226 252
e 226 265
e 227 228
e 227 229
e 227 230
e 227 253
e 227 266
e 227 281
e 228 229
e 228 230
e 228 241
e 228 267
e 229 230
e 229 242
e 229 254
e 229 268
e 229 282
e 230 256
e 230 270
e 230 284
e 231 232
e 231 233
e 231 234
e 231 235
e 231 236
e 231 237
e 231 238
e 231 239
e 231 240
e 231 241
e 231 242
e 231 271
e 232 233
e 232 234
e 232 235
e 232 236
e 232 237
e 232 238
e 232 239
e 232 240
e 232 241
e 232 242
e 232 243
e 233 234
e 233 235
e 233 236
e 233 237
e 233 238
e 233 239
e 233 240
e 233 241
e 233 242
e 233 257
e 233 272
e 234 235
e 234 236
e 234 237
e 234 238
e 234 239
e 234 240
e 234 241
e 234 242
e 234 244
e 234 258
e 235 236
e 235 237
e 235 238
e 235 239
e 235 240
e 235 241
e 235 242
e 235 245
e 235 259
e 235 273
e 236 237
e 236 238
e 236 239
e 236 240
e 236 241
e 236 242
e 236 248
e 236 262
e 236 276
e 237 238
e 237 239
e 237 240
e 237 241
e 237 242
e 237 249
e 237 263
e 238 239
e 238 240
e 238 241
e 238 242
e 238 278
e 239 240
e 239 241
e 239 242
e 239 279
e 240 241
e 240 242
e 240 252
e 240 265
e 241 242
e 241 267
e 242 254
e 242 268
e 242 282
e 243 244
e 243 245
e 243 246
e 243 247
e 243 248
e 243 249
e 243 250
e 243 251
e 243 252
e 243 253
e 243 254
e 243 255
e 243 256
e 244 245
e 244 246
e 244 247
e 244 248
e 244 249
e 244 250
e 244 251
e 244 252
e 244 253
e 244 254
e 244 255
e 244 256
e 244 258
e 245 246
e 245 247
e 245 248
e 245 249
e 245 250
e 245 251
e 245 252
e 245 253
e 245 254
e 245 255
e 245 256
e 245 259
e 245 273
e 246 247
e 246 248
e 246 249
e 246 250
e 246 251
e 246 252
e 246 253
e 246 254
e 246 255
e 246 256
e 246 260
e 246 274
e 247 248
e 247 249
e 247 250
e 247 251
e 247 252
e 247 253
e 247 254
e 247 255
e 247 256
e 247 261
e 247 275
e 248 249
e 248 250
e 248 251
e 248 252
e 248 253
e 248 254
e 248 255
e 248 256
e 248 262
e 248 276
e 249 250
e 249 251
e 249 252
e 249 253
e 249 254
e 249 255
e 249 256
e 249 263
e 250 251
e 250 252
e 250 253
e 250 254
e 250 255
e 250 256
e 250 277
e 251 252
e 251 253
e 251 254
e 251 255
e 251 256
e 251 264
e 252 253
e 252 254
e 252 255
e 252 256
e 252 265
e 253 254
e 253 255
e 253 256
e 253 266
e 253 281
e 254 255
e 254 256
e 254 268
e 254 282
e 255 256
e 255 269
e 255 283
e 256 270
e 256 284
e 257 258
e 257 259
e 257 260
e 257 261
e 257 262
e 257 263
e 257 264
e 257 265
e 257 266
e 257 267
e 257 268
e 257 269
e 257 270
e 257 272
e 258 259
e 258 260
e 258 261
e 258 262
e 258 263
e 258 264
e 258 265
e 258 266
e 258 267
e 258 268
e 258 269
e 258 270
e 259 260
e 259 261
e 259 262
e 259 263
e 259 264
e 259 265
e 259 266
e 259 267
e 259 268
e 259 269
e 259 270
e 259 273
e 260 261
e 260 262
e 260 263
e 260 264
e 260 265
e 260 266
e 260 267
e 260 268
e 260 269
e 260 270
e 260 274
e 261 262
e 261 263
e 261 264
e 261 265
e 261 266
e 261 267
e 261 268
e 261 269
e 261 270
e 261 275
e 262 263
e 262 264
e 262 265
e 262 266
e 262 267
e 262 268
e 262 269
e 262 270
e 262 276
e 263 264
e 263 265
e 263 266
e 263 267
e 263 268
e 263 269
e 263 270
e 264 265
e 264 266
e 264 267
e 264 268
e 264 269
e 264 270
e 265 266
e 265 267
e 265 268
e 265 269
e 265 270
e 266 267
e 266 268
e 266 269
e 266 270
e 266 281
e 267 268
e 267 269
e 267 270
e 268 269
e 268 270
e 268 282
e 269 270
e 269 283
e 270 284
e 271 272
e 271 273
e 271 274
e 271 275
e 271 276
e 271 277
e 271 278
e 271 279
e 271 280
e 271 281
e 271 282
e 271 283
e 271 284
e 272 273
e 272 274
e 272 275
e 272 276
e 272 277
e 272 278
e 272 279
e 272 280
e 272 281
e 272 282
e 272 283
e 272 284
e 273 274
e 273 275
e 273 276
e 273 277
e 273 278
e 273 279
e 273 280
e 273 281
e 273 282
e 273 283
e 273 284
e 274 275
e 274 276
e 274 277
e 274 278
e 274 279
e 274 280
e 274 281
e 274 282
e 274 283
e 274 284
e 275 276
e 275 277
e 275 278
e 275 279
e 275 280
e 275 281
e 275 282
e 275 283
e 275 284
e 276 277
e 276 278
e 276 279
e 276 280
e 276 281
e 276 282
e 276 283
e 276 284
e 277 278
e 277 279
e 277 280
e 277 281
e 277 282
e 277 283
e 277 284
e 278 279
e 278 280
e 278 281
e 278 282
e 278 283
e 278 284
e 279 280
e 279 281
e 279 282
e 279 283
e 279 284
e 280 281
e 280 282
e 280 283
e 280 284
e 281 282
e 281 283
e 281 284
e 282 283
e 282 284
e 283 284
